n=10;
hearts=100;
clubs=75;
spades=86;
diamonds=29;
blocked=2;
m=array2d(1..n, 1..n,[
	1,_,_,_,_,_,_,_,_,2,
	_,_,_,_,_,_,_,_,4,_,
	_,_,_,_,_,_,_,_,_,_,
	_,_,1,3,_,_,_,_,5,_,
	1,_,_,_,_,_,_,2,_,_,
	_,_,_,_,1,4,_,_,_,_,
	_,_,_,_,_,_,_,5,_,_,
	_,_,_,_,_,_,_,_,_,2,
	_,_,_,_,_,_,_,_,_,_,
	_,_,_,3,1,_,_,_,_,_
]);
